50 8
99 458
666 540
755 543
458 294
313 661
234 395
764 116
194 228
222 441
660 156
452 963
198 815
447 345
200 329
548 256
617 601
126 622
705 456
198 488
679 520
807 798
716 502
202 670
796 511
193 108
765 565
914 180
430 973
612 600
173 493
905 97
140 607
68 494
934 428
439 851
172 741
197 102
317 812
809 883
777 603
639 562
375 816
845 436
713 733
225 649
463 445
598 682
188 196
714 488
509 276
